50
    51    28    69    24    96    54    78    22    32    78    57    41    81    84    63    59    54    74    91    24    56    65    77    47    80    88    97     5    11    91    68    43    24    39    50    68    84     8    39    54    48    95    76    43    63    10    39    38    67    78
     7     7     7     1     2     7     4     7    10     1     9     9     4     9     8     3     8     3     5     7     1     3     2     7     7    10     8    10     2     3     7     2     5     2     5     9     5     6     9     5     6     6     9     7     1     7     7     8    10     2
     0   103     0     0   204   102     0     0   109    65     0   132     0   174    28     3   277     0     0     0     0     0   251   271   177   166     0    75   214     0     0   156   276     0     0   164   110   196     0     0   144   110     0     0   102    15     0    14   142     0
